# m062x def2-svp opt freq

hydrogen

0 1
H 1.0 0.0 0.0
H 0.0 1.0 0.0


